p cnf 93 321
-7 1 0
-7 2 0
7 -1 -2 0
-8 1 0
-8 3 0
8 -1 -3 0
-9 1 0
-9 4 0
9 -1 -4 0
-10 1 0
-10 5 0
10 -1 -5 0
-11 1 0
-11 6 0
11 -1 -6 0
-12 2 0
-12 3 0
12 -2 -3 0
-13 2 0
-13 4 0
13 -2 -4 0
-14 2 0
-14 5 0
14 -2 -5 0
-15 2 0
-15 6 0
15 -2 -6 0
-16 3 0
-16 4 0
16 -3 -4 0
-17 3 0
-17 5 0
17 -3 -5 0
-18 3 0
-18 6 0
18 -3 -6 0
-19 4 0
-19 5 0
19 -4 -5 0
-20 4 0
-20 6 0
20 -4 -6 0
-21 5 0
-21 6 0
21 -5 -6 0
-22 0
2 -22 23 0
-2 -22 -23 0
2 -23 22 0
-2 22 23 0
5 -23 24 0
-5 -23 -24 0
5 -24 23 0
-5 23 24 0
7 -24 25 0
-7 -24 -25 0
7 -25 24 0
-7 24 25 0
8 -25 26 0
-8 -25 -26 0
8 -26 25 0
-8 25 26 0
9 -26 27 0
-9 -26 -27 0
9 -27 26 0
-9 26 27 0
11 -27 28 0
-11 -27 -28 0
11 -28 27 0
-11 27 28 0
12 -28 29 0
-12 -28 -29 0
12 -29 28 0
-12 28 29 0
13 -29 30 0
-13 -29 -30 0
13 -30 29 0
-13 29 30 0
15 -30 31 0
-15 -30 -31 0
15 -31 30 0
-15 30 31 0
19 -31 32 0
-19 -31 -32 0
19 -32 31 0
-19 31 32 0
-32 0
-33 0
1 -33 34 0
-1 -33 -34 0
1 -34 33 0
-1 33 34 0
2 -34 35 0
-2 -34 -35 0
2 -35 34 0
-2 34 35 0
4 -35 36 0
-4 -35 -36 0
4 -36 35 0
-4 35 36 0
5 -36 37 0
-5 -36 -37 0
5 -37 36 0
-5 36 37 0
6 -37 38 0
-6 -37 -38 0
6 -38 37 0
-6 37 38 0
8 -38 39 0
-8 -38 -39 0
8 -39 38 0
-8 38 39 0
9 -39 40 0
-9 -39 -40 0
9 -40 39 0
-9 39 40 0
10 -40 41 0
-10 -40 -41 0
10 -41 40 0
-10 40 41 0
13 -41 42 0
-13 -41 -42 0
13 -42 41 0
-13 41 42 0
17 -42 43 0
-17 -42 -43 0
17 -43 42 0
-17 42 43 0
19 -43 44 0
-19 -43 -44 0
19 -44 43 0
-19 43 44 0
21 -44 45 0
-21 -44 -45 0
21 -45 44 0
-21 44 45 0
-45 0
46 0
1 -46 47 0
-1 -46 -47 0
1 -47 46 0
-1 46 47 0
4 -47 48 0
-4 -47 -48 0
4 -48 47 0
-4 47 48 0
7 -48 49 0
-7 -48 -49 0
7 -49 48 0
-7 48 49 0
8 -49 50 0
-8 -49 -50 0
8 -50 49 0
-8 49 50 0
10 -50 51 0
-10 -50 -51 0
10 -51 50 0
-10 50 51 0
11 -51 52 0
-11 -51 -52 0
11 -52 51 0
-11 51 52 0
13 -52 53 0
-13 -52 -53 0
13 -53 52 0
-13 52 53 0
16 -53 54 0
-16 -53 -54 0
16 -54 53 0
-16 53 54 0
17 -54 55 0
-17 -54 -55 0
17 -55 54 0
-17 54 55 0
18 -55 56 0
-18 -55 -56 0
18 -56 55 0
-18 55 56 0
-56 0
-57 0
1 -57 58 0
-1 -57 -58 0
1 -58 57 0
-1 57 58 0
3 -58 59 0
-3 -58 -59 0
3 -59 58 0
-3 58 59 0
4 -59 60 0
-4 -59 -60 0
4 -60 59 0
-4 59 60 0
7 -60 61 0
-7 -60 -61 0
7 -61 60 0
-7 60 61 0
9 -61 62 0
-9 -61 -62 0
9 -62 61 0
-9 61 62 0
12 -62 63 0
-12 -62 -63 0
12 -63 62 0
-12 62 63 0
13 -63 64 0
-13 -63 -64 0
13 -64 63 0
-13 63 64 0
15 -64 65 0
-15 -64 -65 0
15 -65 64 0
-15 64 65 0
16 -65 66 0
-16 -65 -66 0
16 -66 65 0
-16 65 66 0
19 -66 67 0
-19 -66 -67 0
19 -67 66 0
-19 66 67 0
20 -67 68 0
-20 -67 -68 0
20 -68 67 0
-20 67 68 0
-68 0
69 0
1 -69 70 0
-1 -69 -70 0
1 -70 69 0
-1 69 70 0
4 -70 71 0
-4 -70 -71 0
4 -71 70 0
-4 70 71 0
5 -71 72 0
-5 -71 -72 0
5 -72 71 0
-5 71 72 0
7 -72 73 0
-7 -72 -73 0
7 -73 72 0
-7 72 73 0
9 -73 74 0
-9 -73 -74 0
9 -74 73 0
-9 73 74 0
10 -74 75 0
-10 -74 -75 0
10 -75 74 0
-10 74 75 0
12 -75 76 0
-12 -75 -76 0
12 -76 75 0
-12 75 76 0
16 -76 77 0
-16 -76 -77 0
16 -77 76 0
-16 76 77 0
17 -77 78 0
-17 -77 -78 0
17 -78 77 0
-17 77 78 0
20 -78 79 0
-20 -78 -79 0
20 -79 78 0
-20 78 79 0
21 -79 80 0
-21 -79 -80 0
21 -80 79 0
-21 79 80 0
-80 0
-81 0
1 -81 82 0
-1 -81 -82 0
1 -82 81 0
-1 81 82 0
2 -82 83 0
-2 -82 -83 0
2 -83 82 0
-2 82 83 0
4 -83 84 0
-4 -83 -84 0
4 -84 83 0
-4 83 84 0
5 -84 85 0
-5 -84 -85 0
5 -85 84 0
-5 84 85 0
6 -85 86 0
-6 -85 -86 0
6 -86 85 0
-6 85 86 0
8 -86 87 0
-8 -86 -87 0
8 -87 86 0
-8 86 87 0
10 -87 88 0
-10 -87 -88 0
10 -88 87 0
-10 87 88 0
12 -88 89 0
-12 -88 -89 0
12 -89 88 0
-12 88 89 0
14 -89 90 0
-14 -89 -90 0
14 -90 89 0
-14 89 90 0
15 -90 91 0
-15 -90 -91 0
15 -91 90 0
-15 90 91 0
17 -91 92 0
-17 -91 -92 0
17 -92 91 0
-17 91 92 0
19 -92 93 0
-19 -92 -93 0
19 -93 92 0
-19 92 93 0
-93 0
